*HEADING
SI | connected C3D8 axial bar | E=2e11 Pa, nu=0, F=1000 N
*NODE
1, 0, 0, 0
2, 0, 0.01, 0
3, 0, 0.01, 0.01
4, 0, 0, 0.01
5, 0.02, 0, 0
6, 0.02, 0.01, 0
7, 0.02, 0.01, 0.01
8, 0.02, 0, 0.01
9, 0.04, 0, 0
10, 0.04, 0.01, 0
11, 0.04, 0.01, 0.01
12, 0.04, 0, 0.01
13, 0.06000000000000001, 0, 0
14, 0.06000000000000001, 0.01, 0
15, 0.06000000000000001, 0.01, 0.01
16, 0.06000000000000001, 0, 0.01
17, 0.08, 0, 0
18, 0.08, 0.01, 0
19, 0.08, 0.01, 0.01
20, 0.08, 0, 0.01
21, 0.1, 0, 0
22, 0.1, 0.01, 0
23, 0.1, 0.01, 0.01
24, 0.1, 0, 0.01
*ELEMENT,TYPE=C3D8,ELSET=EALL
1, 1, 5, 6, 2, 4, 8, 7, 3
2, 5, 9, 10, 6, 8, 12, 11, 7
3, 9, 13, 14, 10, 12, 16, 15, 11
4, 13, 17, 18, 14, 16, 20, 19, 15
5, 17, 21, 22, 18, 20, 24, 23, 19
*NSET,NSET=ROOT
1, 2, 3, 4
*NSET,NSET=TIP
21, 22, 23, 24
*NSET,NSET=ALLNODES
1, 2, 3, 4, 5, 6, 7, 8, 9, 10, 11, 12, 13, 14, 15, 16
17, 18, 19, 20, 21, 22, 23, 24
*MATERIAL,NAME=ISOTROPIC
*ELASTIC
2.0E11, 0.0
*SOLID SECTION,ELSET=EALL,MATERIAL=ISOTROPIC
*STEP
*STATIC
1.,1.
*BOUNDARY
ROOT,1,3
*CLOAD
21,1,250
22,1,250
23,1,250
24,1,250
*NODE FILE
U,RF
*EL FILE
S,E
*NODE PRINT,NSET=ALLNODES
U,RF
*END STEP
